c Random generated cnf formula, satisfiable: false
p cnf 10 50
9 -8 6 0
1 -4 -9 0
3 6 -2 0
7 -1 10 0
-7 -5 10 0
3 6 -1 0
6 -10 1 0
-8 5 2 0
-3 2 8 0
-2 7 -5 0
-4 -6 1 0
6 9 7 0
5 -6 -3 0
-9 -7 5 0
-9 -10 -6 0
7 8 10 0
-1 -8 4 0
2 -6 -1 0
9 -6 10 0
-2 -3 1 0
6 -1 8 0
-10 -6 -3 0
4 2 -3 0
-5 6 8 0
8 1 3 0
-8 6 5 0
-10 -6 -1 0
-3 5 -4 0
3 2 -4 0
-4 -10 -3 0
-5 6 -2 0
4 2 10 0
2 1 10 0
2 -4 8 0
1 4 -2 0
9 7 3 0
1 7 -10 0
-3 10 8 0
-7 -2 -4 0
-5 -4 3 0
6 -10 1 0
-1 3 -4 0
6 -5 3 0
-5 1 -7 0
-7 -6 -9 0
4 8 10 0
10 -8 -9 0
-1 -8 -6 0
-1 5 10 0
-2 -4 9 0
